# Solution for model r5_t36_m8_5 Batch Number: 5
# Finished Task: 33 / 36
# Makespan: 863.0, Total Distance: 758.0, Total Time: 1.7535
# R O S F Batch
0 0 31 0.0 0.0 -1
1 1 9 0.0 0.0 -1
2 2 19 0.0 0.0 -1
3 3 23 0.0 0.0 -1
4 4 12 0.0 0.0 -1
5 1 -1 815.0 845.0 4
6 2 13 598.0 636.0 2
7 2 10 336.0 363.0 0
8 2 15 447.0 470.0 0
9 1 11 156.0 188.0 0
10 2 8 404.0 426.0 0
11 1 27 241.0 265.0 0
12 4 33 108.0 145.0 0
13 2 26 657.0 680.0 2
14 0 35 532.0 559.0 2
15 2 32 478.0 502.0 0
16 -1 -1 -1.0 -1.0 4
17 4 36 691.0 711.0 3
18 2 7 288.0 326.0 0
19 2 18 231.0 251.0 0
20 3 30 480.0 506.0 2
21 3 20 415.0 443.0 0
22 -1 -1 -1.0 -1.0 4
23 3 21 382.0 407.0 0
24 4 17 645.0 665.0 3
25 1 5 463.0 492.0 2
26 2 40 680.0 709.0 3
27 1 25 416.0 453.0 1
28 -1 -1 -1.0 -1.0 4
29 0 -1 825.0 863.0 4
30 3 38 514.0 534.0 2
31 0 14 489.0 509.0 0
32 2 6 539.0 564.0 0
33 4 24 579.0 609.0 3
34 3 -1 820.0 843.0 4
35 0 39 600.0 625.0 3
36 4 -1 791.0 815.0 4
37 2 -1 752.0 777.0 4
38 3 34 769.0 797.0 4
39 0 29 737.0 769.0 4
40 2 37 721.0 741.0 3
